0420 0 1 30 45 63 79 92 108 124 143 156 171 191 210 226 240 
1287 1 1 90 103 120 138 159 173 186 205 222 237 250 266 285 300 
2974 0 2 330 337 354 369 393 410 420 435 
3354 1 2 515 530 539 556 581 595 612 620 
4895 0 3 860 865 878 888 906 919 926 937 
5002 1 3 1090 1101 1108 1120 1138 1149 1162 1167 
6180 0 1 300 315 333 349 362 378 394 413 426 441 461 480 496 510 
7554 1 1 515 528 545 563 584 598 611 630 647 662 675 691 710 725 
8210 0 2 0 7 24 39 63 80 90 105 
9996 1 2 900 915 924 941 966 980 997 1005 
1623 0 3 730 735 748 758 776 789 796 807 
2486 1 3 460 471 478 490 508 519 532 537 
